(set-logic QF_S)
(declare-fun I () String)
(declare-fun H () String)
(declare-fun G () String)
(declare-fun F () String)
(declare-fun J () String)
(assert (= (str.++  F G G "aaa" G "a" F G G "aaa" G "b" H H G "ba" I "b" I)  (str.++  "aaa" G G F "a" G H H "aa" H H "aab" I I I I "b" J J "baa") ))
(check-sat)
(get-model)
